# Objective value = 8.4669200000000164e+03
I_0_0 2675
I_0_1 3.2189999999999886e+03
I_0_2 2967.00000000002
I_0_3 4.0329999999999245e+03
I_1_0 24
I_1_1 24
I_1_2 12
I_1_3 0
I_2_0 59
I_2_1 59
I_2_2 59
I_2_3 2.3266055748649705e-11
I_3_0 32
I_3_1 0
I_3_2 3.2000000000004789e+01
I_3_3 1.0094813873706698e-11
I_4_0 99
I_4_1 99
I_4_2 99
I_4_3 9.7801766685279290e-12
I_5_0 178
I_5_1 178
I_5_2 89
I_5_3 0
I_6_0 78
I_6_1 78
I_6_2 39
I_6_3 0
I_7_0 15
I_7_1 1.5773059941492917e-12
I_7_2 1.4999999999999998e+01
I_7_3 0
I_8_0 55
I_8_1 0
I_8_2 55
I_8_3 -5.2050808108106139e-11
I_9_0 21
I_9_1 0
I_9_2 2.1000000000000004e+01
I_9_3 0
I_10_0 184
I_10_1 92
I_10_2 1.8399999999996803e+02
I_10_3 9.2000000000016030e+01
I_11_0 102
I_11_1 102
I_11_2 51
I_11_3 1.6089130028262844e-11
I_12_0 20
I_12_1 6.3092586710666865e-12
I_12_2 1.9999999999993690e+01
I_12_3 1.2618461830982142e-11
I_13_0 47
I_13_1 0
I_13_2 47
I_13_3 0
I_14_0 72
I_14_1 72
I_14_2 7.2000000000009678e+01
I_14_3 9.6775920610525645e-12
I_15_0 23
I_15_1 3.62855789566498e-12
I_15_2 2.3000000000003627e+01
I_15_3 -3.6283794871041255e-12
I_16_0 86
I_16_1 86
I_16_2 43
I_16_3 0
I_17_0 142
I_17_1 71
I_17_2 142
I_17_3 71.0000000000336
I_18_0 176
I_18_1 88
I_18_2 176
I_18_3 88
I_19_0 80
I_19_1 0
I_19_2 80
I_19_3 0
I_20_0 116
I_20_1 116
I_20_2 58
I_20_3 0
q_1_0_0 12
q_1_0_1 0
q_1_0_2 0
q_1_1_0 0
q_1_1_1 0
q_1_1_2 0
q_1_2_0 0
q_1_2_1 0
q_1_2_2 0
q_2_0_0 59
q_2_0_1 0
q_2_0_2 4.6532111497299411e-11
q_2_1_0 0
q_2_1_1 0
q_2_1_2 0
q_2_2_0 0
q_2_2_1 59
q_2_2_2 -2.3266055748649705e-11
q_3_0_0 0
q_3_0_1 0
q_3_0_2 5.30431254475161e-12
q_3_1_0 0
q_3_1_1 0
q_3_1_2 0
q_3_2_0 0
q_3_2_1 6.4000000000004789e+01
q_3_2_2 0
q_4_0_0 99
q_4_0_1 0
q_4_0_2 0
q_4_1_0 0
q_4_1_1 0
q_4_1_2 9.7801766685279290e-12
q_4_2_0 0
q_4_2_1 99
q_4_2_2 0
q_5_0_0 89
q_5_0_1 0
q_5_0_2 -4.4408920985006262e-16
q_5_1_0 0
q_5_1_1 0
q_5_1_2 0
q_5_2_0 0
q_5_2_1 0
q_5_2_2 4.4408920985006262e-16
q_6_0_0 39
q_6_0_1 0
q_6_0_2 0
q_6_1_0 0
q_6_1_1 0
q_6_1_2 0
q_6_2_0 0
q_6_2_1 0
q_6_2_2 0
q_7_0_0 1.5773059941492917e-12
q_7_0_1 2.9999999999993204e+01
q_7_0_2 0
q_7_1_0 0
q_7_1_1 5.2202964173631017e-12
q_7_1_2 0
q_7_2_0 0
q_7_2_1 0
q_7_2_2 0
q_8_0_0 0
q_8_0_1 0
q_8_0_2 -5.2050808108106139e-11
q_8_1_0 0
q_8_1_1 0
q_8_1_2 0
q_8_2_0 0
q_8_2_1 110
q_8_2_2 0
q_9_0_0 0
q_9_0_1 0
q_9_0_2 -3.9748204727629854e-11
q_9_1_0 0
q_9_1_1 0
q_9_1_2 3.3123281895086620e-11
q_9_2_0 0
q_9_2_1 42
q_9_2_2 6.6247697050586158e-12
q_10_0_0 0
q_10_0_1 184
q_10_0_2 0
q_10_1_0 0
q_10_1_1 -3.1984970227938447e-11
q_10_1_2 0
q_10_2_0 0
q_10_2_1 0
q_10_2_2 4.8029136223703972e-11
q_11_0_0 51
q_11_0_1 0
q_11_0_2 2.4133361975486878e-11
q_11_1_0 0
q_11_1_1 0
q_11_1_2 0
q_11_2_0 0
q_11_2_1 0
q_11_2_2 -8.04445399182896e-12
q_12_0_0 6.3092586710666865e-12
q_12_0_1 0
q_12_0_2 1.2618461830982142e-11
q_12_1_0 0
q_12_1_1 0
q_12_1_2 0
q_12_2_0 0
q_12_2_1 3.9999999999987381e+01
q_12_2_2 6.3092309154910708e-12
q_13_0_0 0
q_13_0_1 94
q_13_0_2 1.4826865530369289e-11
q_13_1_0 0
q_13_1_1 0
q_13_1_2 1.4826865530369282e-11
q_13_2_0 0
q_13_2_1 0
q_13_2_2 -2.9653731060738565e-11
q_14_0_0 72
q_14_0_1 0
q_14_0_2 0
q_14_1_0 0
q_14_1_1 0
q_14_1_2 0
q_14_2_0 0
q_14_2_1 7.2000000000009678e+01
q_14_2_2 0
q_15_0_0 3.62855789566498e-12
q_15_0_1 0
q_15_0_2 0
q_15_1_0 0
q_15_1_1 0
q_15_1_2 -7.2557001531594369e-12
q_15_2_0 0
q_15_2_1 46
q_15_2_2 0
q_16_0_0 43
q_16_0_1 0
q_16_0_2 0
q_16_1_0 0
q_16_1_1 0
q_16_1_2 0
q_16_2_0 0
q_16_2_1 0
q_16_2_2 0
q_17_0_0 0
q_17_0_1 142
q_17_0_2 0
q_17_1_0 0
q_17_1_1 0
q_17_1_2 3.3597046361368694e-11
q_17_2_0 0
q_17_2_1 0
q_17_2_2 0
q_18_0_0 0
q_18_0_1 0
q_18_0_2 0
q_18_1_0 0
q_18_1_1 176
q_18_1_2 0
q_18_2_0 0
q_18_2_1 0
q_18_2_2 0
q_19_0_0 0
q_19_0_1 0
q_19_0_2 0
q_19_1_0 0
q_19_1_1 160
q_19_1_2 0
q_19_2_0 0
q_19_2_1 0
q_19_2_2 0
q_20_0_0 58
q_20_0_1 0
q_20_0_2 0
q_20_1_0 0
q_20_1_1 0
q_20_1_2 0
q_20_2_0 0
q_20_2_1 0
q_20_2_2 0
y_0_0_0 1
y_0_0_1 1
y_0_0_2 0
y_0_1_0 0
y_0_1_1 1
y_0_1_2 1.5773261202520514e-13
y_0_2_0 0
y_0_2_1 1
y_0_2_2 0
y_1_0_0 1
y_1_0_1 0
y_1_0_2 0
y_1_1_0 0
y_1_1_1 0
y_1_1_2 0
y_1_2_0 0
y_1_2_1 0
y_1_2_2 0
y_2_0_0 1
y_2_0_1 0
y_2_0_2 3.9434081000599974e-13
y_2_1_0 0
y_2_1_1 0
y_2_1_2 0
y_2_2_0 0
y_2_2_1 1
y_2_2_2 0
y_3_0_0 0
y_3_0_1 0
y_3_0_2 3.1546293355333432e-13
y_3_1_0 0
y_3_1_1 0
y_3_1_2 0
y_3_2_0 0
y_3_2_1 1.0000000000000748e+00
y_3_2_2 0
y_4_0_0 1
y_4_0_1 0
y_4_0_2 0
y_4_1_0 0
y_4_1_1 0
y_4_1_2 0
y_4_2_0 0
y_4_2_1 1
y_4_2_2 0
y_5_0_0 1
y_5_0_1 0
y_5_0_2 0
y_5_1_0 0
y_5_1_1 0
y_5_1_2 0
y_5_2_0 0
y_5_2_1 0
y_5_2_2 0
y_6_0_0 1
y_6_0_1 0
y_6_0_2 0
y_6_1_0 0
y_6_1_1 0
y_6_1_2 0
y_6_2_0 0
y_6_2_1 0
y_6_2_2 0
y_7_0_0 1.0515373294328612e-13
y_7_0_1 9.9999999999977340e-01
y_7_0_2 0
y_7_1_0 0
y_7_1_1 1.7401097923697151e-13
y_7_1_2 0
y_7_2_0 0
y_7_2_1 0
y_7_2_2 0
y_8_0_0 0
y_8_0_1 0
y_8_0_2 -9.46388800660003e-13
y_8_1_0 0
y_8_1_1 0
y_8_1_2 0
y_8_2_0 0
y_8_2_1 1
y_8_2_2 0
y_9_0_0 0
y_9_0_1 0
y_9_0_2 -9.46388800660003e-13
y_9_1_0 0
y_9_1_1 0
y_9_1_2 7.8864692554247995e-13
y_9_2_0 0
y_9_2_1 1
y_9_2_2 1.5773261202520514e-13
y_10_0_0 0
y_10_0_1 1
y_10_0_2 0
y_10_1_0 0
y_10_1_1 -1.7383143535720791e-13
y_10_1_2 0
y_10_2_0 0
y_10_2_1 0
y_10_2_2 0
y_11_0_0 1
y_11_0_1 0
y_11_0_2 1.5773320150014314e-13
y_11_1_0 0
y_11_1_1 0
y_11_1_2 0
y_11_2_0 0
y_11_2_1 0
y_11_2_2 1.5773261202520514e-13
y_12_0_0 3.1546293355333432e-13
y_12_0_1 0
y_12_0_2 3.1546293355333432e-13
y_12_1_0 0
y_12_1_1 0
y_12_1_2 0
y_12_2_0 0
y_12_2_1 9.9999999999968447e-01
y_12_2_2 0
y_13_0_0 0
y_13_0_1 1
y_13_0_2 1.5773261202520519e-13
y_13_1_0 0
y_13_1_1 0
y_13_1_2 1.5773261202520514e-13
y_13_2_0 0
y_13_2_1 0
y_13_2_2 -3.1546522405041028e-13
y_14_0_0 1
y_14_0_1 0
y_14_0_2 0
y_14_1_0 0
y_14_1_1 0
y_14_1_2 1.5773261202520514e-13
y_14_2_0 0
y_14_2_1 1
y_14_2_2 0
y_15_0_0 1.5776338676804261e-13
y_15_0_1 0
y_15_0_2 0
y_15_1_0 0
y_15_1_1 0
y_15_1_2 -1.5773261202520516e-13
y_15_2_0 0
y_15_2_1 1
y_15_2_2 0
y_16_0_0 1
y_16_0_1 0
y_16_0_2 0
y_16_1_0 0
y_16_1_1 0
y_16_1_2 0
y_16_2_0 0
y_16_2_1 0
y_16_2_2 0
y_17_0_0 0
y_17_0_1 1
y_17_0_2 0
y_17_1_0 0
y_17_1_1 0
y_17_1_2 1.5773261202520514e-13
y_17_2_0 0
y_17_2_1 0
y_17_2_2 0
y_18_0_0 0
y_18_0_1 0
y_18_0_2 0
y_18_1_0 0
y_18_1_1 1
y_18_1_2 0
y_18_2_0 0
y_18_2_1 0
y_18_2_2 0
y_19_0_0 0
y_19_0_1 0
y_19_0_2 0
y_19_1_0 0
y_19_1_1 1
y_19_1_2 0
y_19_2_0 0
y_19_2_1 0
y_19_2_2 0
y_20_0_0 1
y_20_0_1 0
y_20_0_2 0
y_20_1_0 0
y_20_1_1 0
y_20_1_2 0
y_20_2_0 0
y_20_2_1 0
y_20_2_2 0
x_0_1_0_0 0
x_0_1_0_1 0
x_0_1_0_2 0
x_0_1_1_0 0
x_0_1_1_1 0
x_0_1_1_2 0
x_0_1_2_0 0
x_0_1_2_1 0
x_0_1_2_2 0
x_0_2_0_0 0
x_0_2_0_1 0
x_0_2_0_2 0
x_0_2_1_0 0
x_0_2_1_1 0
x_0_2_1_2 0
x_0_2_2_0 0
x_0_2_2_1 0
x_0_2_2_2 0
x_0_3_0_0 0
x_0_3_0_1 0
x_0_3_0_2 0
x_0_3_1_0 0
x_0_3_1_1 0
x_0_3_1_2 0
x_0_3_2_0 0
x_0_3_2_1 0
x_0_3_2_2 0
x_0_4_0_0 0
x_0_4_0_1 0
x_0_4_0_2 0
x_0_4_1_0 0
x_0_4_1_1 0
x_0_4_1_2 0
x_0_4_2_0 0
x_0_4_2_1 1
x_0_4_2_2 0
x_0_5_0_0 0
x_0_5_0_1 0
x_0_5_0_2 0
x_0_5_1_0 0
x_0_5_1_1 0
x_0_5_1_2 0
x_0_5_2_0 0
x_0_5_2_1 0
x_0_5_2_2 0
x_0_6_0_0 0
x_0_6_0_1 0
x_0_6_0_2 0
x_0_6_1_0 0
x_0_6_1_1 0
x_0_6_1_2 0
x_0_6_2_0 0
x_0_6_2_1 0
x_0_6_2_2 0
x_0_7_0_0 2.1030746588657223e-13
x_0_7_0_1 9.9999999999977351e-01
x_0_7_0_2 0
x_0_7_1_0 0
x_0_7_1_1 3.48021958473943e-13
x_0_7_1_2 1.5773261202520514e-13
x_0_7_2_0 0
x_0_7_2_1 0
x_0_7_2_2 0
x_0_8_0_0 0
x_0_8_0_1 0
x_0_8_0_2 0
x_0_8_1_0 0
x_0_8_1_1 0
x_0_8_1_2 0
x_0_8_2_0 0
x_0_8_2_1 0
x_0_8_2_2 0
x_0_9_0_0 0
x_0_9_0_1 0
x_0_9_0_2 0
x_0_9_1_0 0
x_0_9_1_1 0
x_0_9_1_2 0
x_0_9_2_0 0
x_0_9_2_1 0
x_0_9_2_2 0
x_0_10_0_0 0
x_0_10_0_1 2.2671339632018839e-13
x_0_10_0_2 0
x_0_10_1_0 0
x_0_10_1_1 -3.4766287071441582e-13
x_0_10_1_2 1.5773261202520514e-13
x_0_10_2_0 0
x_0_10_2_1 0
x_0_10_2_2 0
x_0_11_0_0 9.9999999999978961e-01
x_0_11_0_1 0
x_0_11_0_2 0
x_0_11_1_0 0
x_0_11_1_1 0
x_0_11_1_2 0
x_0_11_2_0 0
x_0_11_2_1 0
x_0_11_2_2 0
x_0_12_0_0 0
x_0_12_0_1 0
x_0_12_0_2 0
x_0_12_1_0 0
x_0_12_1_1 0
x_0_12_1_2 0
x_0_12_2_0 0
x_0_12_2_1 1
x_0_12_2_2 0
x_0_13_0_0 0
x_0_13_0_1 1
x_0_13_0_2 0
x_0_13_1_0 0
x_0_13_1_1 0
x_0_13_1_2 0
x_0_13_2_0 0
x_0_13_2_1 0
x_0_13_2_2 0
x_0_14_0_0 0
x_0_14_0_1 0
x_0_14_0_2 0
x_0_14_1_0 0
x_0_14_1_1 0
x_0_14_1_2 0
x_0_14_2_0 0
x_0_14_2_1 0
x_0_14_2_2 0
x_0_15_0_0 0
x_0_15_0_1 0
x_0_15_0_2 0
x_0_15_1_0 0
x_0_15_1_1 0
x_0_15_1_2 0
x_0_15_2_0 0
x_0_15_2_1 0
x_0_15_2_2 0
x_0_16_0_0 1
x_0_16_0_1 0
x_0_16_0_2 0
x_0_16_1_0 0
x_0_16_1_1 0
x_0_16_1_2 0
x_0_16_2_0 0
x_0_16_2_1 0
x_0_16_2_2 0
x_0_17_0_0 0
x_0_17_0_1 0
x_0_17_0_2 0
x_0_17_1_0 0
x_0_17_1_1 0
x_0_17_1_2 0
x_0_17_2_0 0
x_0_17_2_1 0
x_0_17_2_2 0
x_0_18_0_0 0
x_0_18_0_1 0
x_0_18_0_2 0
x_0_18_1_0 0
x_0_18_1_1 1
x_0_18_1_2 0
x_0_18_2_0 0
x_0_18_2_1 0
x_0_18_2_2 0
x_0_19_0_0 0
x_0_19_0_1 0
x_0_19_0_2 0
x_0_19_1_0 0
x_0_19_1_1 1
x_0_19_1_2 0
x_0_19_2_0 0
x_0_19_2_1 0
x_0_19_2_2 0
x_0_20_0_0 0
x_0_20_0_1 0
x_0_20_0_2 0
x_0_20_1_0 0
x_0_20_1_1 0
x_0_20_1_2 0
x_0_20_2_0 0
x_0_20_2_1 0
x_0_20_2_2 0
x_1_2_0_0 1
x_1_2_0_1 0
x_1_2_0_2 7.8868162001199948e-13
x_1_2_1_0 0
x_1_2_1_1 0
x_1_2_1_2 0
x_1_2_2_0 0
x_1_2_2_1 0
x_1_2_2_2 0
x_1_3_0_0 0
x_1_3_0_1 0
x_1_3_0_2 0
x_1_3_1_0 0
x_1_3_1_1 0
x_1_3_1_2 0
x_1_3_2_0 0
x_1_3_2_1 0
x_1_3_2_2 0
x_1_4_0_0 0
x_1_4_0_1 0
x_1_4_0_2 0
x_1_4_1_0 0
x_1_4_1_1 0
x_1_4_1_2 0
x_1_4_2_0 0
x_1_4_2_1 0
x_1_4_2_2 0
x_1_5_0_0 -1.0515546766676209e-13
x_1_5_0_1 0
x_1_5_0_2 0
x_1_5_1_0 0
x_1_5_1_1 0
x_1_5_1_2 0
x_1_5_2_0 0
x_1_5_2_1 0
x_1_5_2_2 0
x_1_6_0_0 9.9999999999989486e-01
x_1_6_0_1 0
x_1_6_0_2 1.8927637235321981e-12
x_1_6_1_0 0
x_1_6_1_1 0
x_1_6_1_2 0
x_1_6_2_0 0
x_1_6_2_1 0
x_1_6_2_2 0
x_1_7_0_0 0
x_1_7_0_1 0
x_1_7_0_2 0
x_1_7_1_0 0
x_1_7_1_1 0
x_1_7_1_2 0
x_1_7_2_0 0
x_1_7_2_1 0
x_1_7_2_2 0
x_1_8_0_0 0
x_1_8_0_1 0
x_1_8_0_2 -1.4195866704369564e-12
x_1_8_1_0 0
x_1_8_1_1 0
x_1_8_1_2 0
x_1_8_2_0 0
x_1_8_2_1 0
x_1_8_2_2 0
x_1_9_0_0 0
x_1_9_0_1 0
x_1_9_0_2 -9.46381861766099e-13
x_1_9_1_0 0
x_1_9_1_1 0
x_1_9_1_2 0
x_1_9_2_0 0
x_1_9_2_1 0
x_1_9_2_2 0
x_1_10_0_0 0
x_1_10_0_1 0
x_1_10_0_2 0
x_1_10_1_0 0
x_1_10_1_1 0
x_1_10_1_2 0
x_1_10_2_0 0
x_1_10_2_1 0
x_1_10_2_2 0
x_1_11_0_0 0
x_1_11_0_1 0
x_1_11_0_2 0
x_1_11_1_0 0
x_1_11_1_1 0
x_1_11_1_2 0
x_1_11_2_0 0
x_1_11_2_1 0
x_1_11_2_2 0
x_1_12_0_0 2.1031093533352418e-13
x_1_12_0_1 0
x_1_12_0_2 -3.9434081000599974e-13
x_1_12_1_0 0
x_1_12_1_1 0
x_1_12_1_2 0
x_1_12_2_0 0
x_1_12_2_1 0
x_1_12_2_2 0
x_1_13_0_0 0
x_1_13_0_1 0
x_1_13_0_2 0
x_1_13_1_0 0
x_1_13_1_1 0
x_1_13_1_2 0
x_1_13_2_0 0
x_1_13_2_1 0
x_1_13_2_2 0
x_1_14_0_0 0
x_1_14_0_1 0
x_1_14_0_2 0
x_1_14_1_0 0
x_1_14_1_1 0
x_1_14_1_2 0
x_1_14_2_0 0
x_1_14_2_1 0
x_1_14_2_2 0
x_1_15_0_0 0
x_1_15_0_1 0
x_1_15_0_2 0
x_1_15_1_0 0
x_1_15_1_1 0
x_1_15_1_2 0
x_1_15_2_0 0
x_1_15_2_1 0
x_1_15_2_2 0
x_1_16_0_0 0
x_1_16_0_1 0
x_1_16_0_2 0
x_1_16_1_0 0
x_1_16_1_1 0
x_1_16_1_2 0
x_1_16_2_0 0
x_1_16_2_1 0
x_1_16_2_2 0
x_1_17_0_0 0
x_1_17_0_1 0
x_1_17_0_2 0
x_1_17_1_0 0
x_1_17_1_1 0
x_1_17_1_2 0
x_1_17_2_0 0
x_1_17_2_1 0
x_1_17_2_2 0
x_1_18_0_0 0
x_1_18_0_1 0
x_1_18_0_2 0
x_1_18_1_0 0
x_1_18_1_1 0
x_1_18_1_2 0
x_1_18_2_0 0
x_1_18_2_1 0
x_1_18_2_2 0
x_1_19_0_0 0
x_1_19_0_1 0
x_1_19_0_2 0
x_1_19_1_0 0
x_1_19_1_1 0
x_1_19_1_2 0
x_1_19_2_0 0
x_1_19_2_1 0
x_1_19_2_2 0
x_1_20_0_0 0
x_1_20_0_1 0
x_1_20_0_2 0
x_1_20_1_0 0
x_1_20_1_1 0
x_1_20_1_2 0
x_1_20_2_0 0
x_1_20_2_1 0
x_1_20_2_2 0
x_2_3_0_0 0
x_2_3_0_1 0
x_2_3_0_2 0
x_2_3_1_0 0
x_2_3_1_1 0
x_2_3_1_2 0
x_2_3_2_0 0
x_2_3_2_1 0
x_2_3_2_2 0
x_2_4_0_0 1
x_2_4_0_1 0
x_2_4_0_2 0
x_2_4_1_0 0
x_2_4_1_1 0
x_2_4_1_2 0
x_2_4_2_0 0
x_2_4_2_1 1
x_2_4_2_2 0
x_2_5_0_0 0
x_2_5_0_1 0
x_2_5_0_2 0
x_2_5_1_0 0
x_2_5_1_1 0
x_2_5_1_2 0
x_2_5_2_0 0
x_2_5_2_1 0
x_2_5_2_2 0
x_2_6_0_0 0
x_2_6_0_1 0
x_2_6_0_2 0
x_2_6_1_0 0
x_2_6_1_1 0
x_2_6_1_2 0
x_2_6_2_0 0
x_2_6_2_1 0
x_2_6_2_2 0
x_2_7_0_0 0
x_2_7_0_1 0
x_2_7_0_2 0
x_2_7_1_0 0
x_2_7_1_1 0
x_2_7_1_2 0
x_2_7_2_0 0
x_2_7_2_1 0
x_2_7_2_2 0
x_2_8_0_0 0
x_2_8_0_1 0
x_2_8_0_2 0
x_2_8_1_0 0
x_2_8_1_1 0
x_2_8_1_2 0
x_2_8_2_0 0
x_2_8_2_1 1
x_2_8_2_2 0
x_2_9_0_0 0
x_2_9_0_1 0
x_2_9_0_2 0
x_2_9_1_0 0
x_2_9_1_1 0
x_2_9_1_2 0
x_2_9_2_0 0
x_2_9_2_1 0
x_2_9_2_2 0
x_2_10_0_0 0
x_2_10_0_1 0
x_2_10_0_2 0
x_2_10_1_0 0
x_2_10_1_1 0
x_2_10_1_2 0
x_2_10_2_0 0
x_2_10_2_1 0
x_2_10_2_2 0
x_2_11_0_0 0
x_2_11_0_1 0
x_2_11_0_2 0
x_2_11_1_0 0
x_2_11_1_1 0
x_2_11_1_2 0
x_2_11_2_0 0
x_2_11_2_1 0
x_2_11_2_2 0
x_2_12_0_0 0
x_2_12_0_1 0
x_2_12_0_2 0
x_2_12_1_0 0
x_2_12_1_1 0
x_2_12_1_2 0
x_2_12_2_0 0
x_2_12_2_1 0
x_2_12_2_2 0
x_2_13_0_0 0
x_2_13_0_1 0
x_2_13_0_2 0
x_2_13_1_0 0
x_2_13_1_1 0
x_2_13_1_2 0
x_2_13_2_0 0
x_2_13_2_1 0
x_2_13_2_2 0
x_2_14_0_0 0
x_2_14_0_1 0
x_2_14_0_2 0
x_2_14_1_0 0
x_2_14_1_1 0
x_2_14_1_2 0
x_2_14_2_0 0
x_2_14_2_1 0
x_2_14_2_2 0
x_2_15_0_0 0
x_2_15_0_1 0
x_2_15_0_2 0
x_2_15_1_0 0
x_2_15_1_1 0
x_2_15_1_2 0
x_2_15_2_0 0
x_2_15_2_1 0
x_2_15_2_2 0
x_2_16_0_0 0
x_2_16_0_1 0
x_2_16_0_2 0
x_2_16_1_0 0
x_2_16_1_1 0
x_2_16_1_2 0
x_2_16_2_0 0
x_2_16_2_1 0
x_2_16_2_2 0
x_2_17_0_0 0
x_2_17_0_1 0
x_2_17_0_2 0
x_2_17_1_0 0
x_2_17_1_1 0
x_2_17_1_2 0
x_2_17_2_0 0
x_2_17_2_1 0
x_2_17_2_2 0
x_2_18_0_0 0
x_2_18_0_1 0
x_2_18_0_2 0
x_2_18_1_0 0
x_2_18_1_1 0
x_2_18_1_2 0
x_2_18_2_0 0
x_2_18_2_1 0
x_2_18_2_2 0
x_2_19_0_0 0
x_2_19_0_1 0
x_2_19_0_2 0
x_2_19_1_0 0
x_2_19_1_1 0
x_2_19_1_2 0
x_2_19_2_0 0
x_2_19_2_1 0
x_2_19_2_2 0
x_2_20_0_0 0
x_2_20_0_1 0
x_2_20_0_2 0
x_2_20_1_0 0
x_2_20_1_1 0
x_2_20_1_2 0
x_2_20_2_0 0
x_2_20_2_1 0
x_2_20_2_2 0
x_3_4_0_0 0
x_3_4_0_1 0
x_3_4_0_2 0
x_3_4_1_0 0
x_3_4_1_1 0
x_3_4_1_2 0
x_3_4_2_0 0
x_3_4_2_1 0
x_3_4_2_2 0
x_3_5_0_0 0
x_3_5_0_1 0
x_3_5_0_2 -1.5773320150014314e-13
x_3_5_1_0 0
x_3_5_1_1 0
x_3_5_1_2 0
x_3_5_2_0 0
x_3_5_2_1 0
x_3_5_2_2 0
x_3_6_0_0 0
x_3_6_0_1 0
x_3_6_0_2 -7.8866774222419167e-13
x_3_6_1_0 0
x_3_6_1_1 0
x_3_6_1_2 0
x_3_6_2_0 0
x_3_6_2_1 6.3092586710666865e-13
x_3_6_2_2 0
x_3_7_0_0 0
x_3_7_0_1 0
x_3_7_0_2 0
x_3_7_1_0 0
x_3_7_1_1 0
x_3_7_1_2 0
x_3_7_2_0 0
x_3_7_2_1 0
x_3_7_2_2 0
x_3_8_0_0 0
x_3_8_0_1 0
x_3_8_0_2 0
x_3_8_1_0 0
x_3_8_1_1 0
x_3_8_1_2 0
x_3_8_2_0 0
x_3_8_2_1 0
x_3_8_2_2 0
x_3_9_0_0 0
x_3_9_0_1 0
x_3_9_0_2 1.5773146677666716e-13
x_3_9_1_0 0
x_3_9_1_1 0
x_3_9_1_2 0
x_3_9_2_0 0
x_3_9_2_1 0
x_3_9_2_2 0
x_3_10_0_0 0
x_3_10_0_1 0
x_3_10_0_2 0
x_3_10_1_0 0
x_3_10_1_1 0
x_3_10_1_2 0
x_3_10_2_0 0
x_3_10_2_1 0
x_3_10_2_2 0
x_3_11_0_0 0
x_3_11_0_1 0
x_3_11_0_2 0
x_3_11_1_0 0
x_3_11_1_1 0
x_3_11_1_2 0
x_3_11_2_0 0
x_3_11_2_1 0
x_3_11_2_2 0
x_3_12_0_0 0
x_3_12_0_1 0
x_3_12_0_2 1.4196005482247642e-12
x_3_12_1_0 0
x_3_12_1_1 0
x_3_12_1_2 0
x_3_12_2_0 0
x_3_12_2_1 9.9999999999951827e-01
x_3_12_2_2 0
x_3_13_0_0 0
x_3_13_0_1 0
x_3_13_0_2 0
x_3_13_1_0 0
x_3_13_1_1 0
x_3_13_1_2 0
x_3_13_2_0 0
x_3_13_2_1 0
x_3_13_2_2 0
x_3_14_0_0 0
x_3_14_0_1 0
x_3_14_0_2 0
x_3_14_1_0 0
x_3_14_1_1 0
x_3_14_1_2 0
x_3_14_2_0 0
x_3_14_2_1 1
x_3_14_2_2 0
x_3_15_0_0 0
x_3_15_0_1 0
x_3_15_0_2 0
x_3_15_1_0 0
x_3_15_1_1 0
x_3_15_1_2 0
x_3_15_2_0 0
x_3_15_2_1 0
x_3_15_2_2 0
x_3_16_0_0 0
x_3_16_0_1 0
x_3_16_0_2 0
x_3_16_1_0 0
x_3_16_1_1 0
x_3_16_1_2 0
x_3_16_2_0 0
x_3_16_2_1 0
x_3_16_2_2 0
x_3_17_0_0 0
x_3_17_0_1 0
x_3_17_0_2 0
x_3_17_1_0 0
x_3_17_1_1 0
x_3_17_1_2 0
x_3_17_2_0 0
x_3_17_2_1 0
x_3_17_2_2 0
x_3_18_0_0 0
x_3_18_0_1 0
x_3_18_0_2 0
x_3_18_1_0 0
x_3_18_1_1 0
x_3_18_1_2 0
x_3_18_2_0 0
x_3_18_2_1 0
x_3_18_2_2 0
x_3_19_0_0 0
x_3_19_0_1 0
x_3_19_0_2 0
x_3_19_1_0 0
x_3_19_1_1 0
x_3_19_1_2 0
x_3_19_2_0 0
x_3_19_2_1 0
x_3_19_2_2 0
x_3_20_0_0 0
x_3_20_0_1 0
x_3_20_0_2 0
x_3_20_1_0 0
x_3_20_1_1 0
x_3_20_1_2 0
x_3_20_2_0 0
x_3_20_2_1 0
x_3_20_2_2 0
x_4_5_0_0 0
x_4_5_0_1 0
x_4_5_0_2 0
x_4_5_1_0 0
x_4_5_1_1 0
x_4_5_1_2 0
x_4_5_2_0 0
x_4_5_2_1 0
x_4_5_2_2 0
x_4_6_0_0 0
x_4_6_0_1 0
x_4_6_0_2 0
x_4_6_1_0 0
x_4_6_1_1 0
x_4_6_1_2 0
x_4_6_2_0 0
x_4_6_2_1 0
x_4_6_2_2 0
x_4_7_0_0 0
x_4_7_0_1 0
x_4_7_0_2 0
x_4_7_1_0 0
x_4_7_1_1 0
x_4_7_1_2 0
x_4_7_2_0 0
x_4_7_2_1 0
x_4_7_2_2 0
x_4_8_0_0 0
x_4_8_0_1 0
x_4_8_0_2 0
x_4_8_1_0 0
x_4_8_1_1 0
x_4_8_1_2 0
x_4_8_2_0 0
x_4_8_2_1 0
x_4_8_2_2 0
x_4_9_0_0 0
x_4_9_0_1 0
x_4_9_0_2 0
x_4_9_1_0 0
x_4_9_1_1 0
x_4_9_1_2 0
x_4_9_2_0 0
x_4_9_2_1 0
x_4_9_2_2 0
x_4_10_0_0 0
x_4_10_0_1 0
x_4_10_0_2 0
x_4_10_1_0 0
x_4_10_1_1 0
x_4_10_1_2 0
x_4_10_2_0 0
x_4_10_2_1 0
x_4_10_2_2 0
x_4_11_0_0 0
x_4_11_0_1 0
x_4_11_0_2 0
x_4_11_1_0 0
x_4_11_1_1 0
x_4_11_1_2 0
x_4_11_2_0 0
x_4_11_2_1 0
x_4_11_2_2 0
x_4_12_0_0 0
x_4_12_0_1 0
x_4_12_0_2 0
x_4_12_1_0 0
x_4_12_1_1 0
x_4_12_1_2 0
x_4_12_2_0 0
x_4_12_2_1 0
x_4_12_2_2 0
x_4_13_0_0 0
x_4_13_0_1 0
x_4_13_0_2 0
x_4_13_1_0 0
x_4_13_1_1 0
x_4_13_1_2 0
x_4_13_2_0 0
x_4_13_2_1 0
x_4_13_2_2 0
x_4_14_0_0 0
x_4_14_0_1 0
x_4_14_0_2 0
x_4_14_1_0 0
x_4_14_1_1 0
x_4_14_1_2 0
x_4_14_2_0 0
x_4_14_2_1 0
x_4_14_2_2 0
x_4_15_0_0 0
x_4_15_0_1 0
x_4_15_0_2 0
x_4_15_1_0 0
x_4_15_1_1 0
x_4_15_1_2 0
x_4_15_2_0 0
x_4_15_2_1 0
x_4_15_2_2 0
x_4_16_0_0 0
x_4_16_0_1 0
x_4_16_0_2 0
x_4_16_1_0 0
x_4_16_1_1 0
x_4_16_1_2 0
x_4_16_2_0 0
x_4_16_2_1 0
x_4_16_2_2 0
x_4_17_0_0 0
x_4_17_0_1 0
x_4_17_0_2 0
x_4_17_1_0 0
x_4_17_1_1 0
x_4_17_1_2 0
x_4_17_2_0 0
x_4_17_2_1 0
x_4_17_2_2 0
x_4_18_0_0 0
x_4_18_0_1 0
x_4_18_0_2 0
x_4_18_1_0 0
x_4_18_1_1 0
x_4_18_1_2 0
x_4_18_2_0 0
x_4_18_2_1 0
x_4_18_2_2 0
x_4_19_0_0 0
x_4_19_0_1 0
x_4_19_0_2 0
x_4_19_1_0 0
x_4_19_1_1 0
x_4_19_1_2 0
x_4_19_2_0 0
x_4_19_2_1 0
x_4_19_2_2 0
x_4_20_0_0 1
x_4_20_0_1 0
x_4_20_0_2 0
x_4_20_1_0 0
x_4_20_1_1 0
x_4_20_1_2 0
x_4_20_2_0 0
x_4_20_2_1 0
x_4_20_2_2 0
x_5_6_0_0 2.1008195183469525e-13
x_5_6_0_1 0
x_5_6_0_2 0
x_5_6_1_0 0
x_5_6_1_1 0
x_5_6_1_2 0
x_5_6_2_0 0
x_5_6_2_1 0
x_5_6_2_2 0
x_5_7_0_0 0
x_5_7_0_1 0
x_5_7_0_2 0
x_5_7_1_0 0
x_5_7_1_1 0
x_5_7_1_2 0
x_5_7_2_0 0
x_5_7_2_1 0
x_5_7_2_2 0
x_5_8_0_0 0
x_5_8_0_1 0
x_5_8_0_2 0
x_5_8_1_0 0
x_5_8_1_1 0
x_5_8_1_2 0
x_5_8_2_0 0
x_5_8_2_1 0
x_5_8_2_2 0
x_5_9_0_0 0
x_5_9_0_1 0
x_5_9_0_2 -2.3660240433542867e-13
x_5_9_1_0 0
x_5_9_1_1 0
x_5_9_1_2 0
x_5_9_2_0 0
x_5_9_2_1 0
x_5_9_2_2 0
x_5_10_0_0 0
x_5_10_0_1 0
x_5_10_0_2 0
x_5_10_1_0 0
x_5_10_1_1 0
x_5_10_1_2 0
x_5_10_2_0 0
x_5_10_2_1 0
x_5_10_2_2 0
x_5_11_0_0 1
x_5_11_0_1 0
x_5_11_0_2 0
x_5_11_1_0 0
x_5_11_1_1 0
x_5_11_1_2 0
x_5_11_2_0 0
x_5_11_2_1 0
x_5_11_2_2 0
x_5_12_0_0 1.0515373294328612e-13
x_5_12_0_1 0
x_5_12_0_2 2.3660240433542867e-13
x_5_12_1_0 0
x_5_12_1_1 0
x_5_12_1_2 0
x_5_12_2_0 0
x_5_12_2_1 0
x_5_12_2_2 0
x_5_13_0_0 0
x_5_13_0_1 0
x_5_13_0_2 0
x_5_13_1_0 0
x_5_13_1_1 0
x_5_13_1_2 0
x_5_13_2_0 0
x_5_13_2_1 0
x_5_13_2_2 -3.1546522405041028e-13
x_5_14_0_0 9.9999999999978961e-01
x_5_14_0_1 0
x_5_14_0_2 1.5773261202520516e-13
x_5_14_1_0 0
x_5_14_1_1 0
x_5_14_1_2 3.1546522405041028e-13
x_5_14_2_0 0
x_5_14_2_1 0
x_5_14_2_2 3.1546522405041028e-13
x_5_15_0_0 0
x_5_15_0_1 0
x_5_15_0_2 0
x_5_15_1_0 0
x_5_15_1_1 0
x_5_15_1_2 -3.1546522405041028e-13
x_5_15_2_0 0
x_5_15_2_1 0
x_5_15_2_2 0
x_5_16_0_0 0
x_5_16_0_1 0
x_5_16_0_2 0
x_5_16_1_0 0
x_5_16_1_1 0
x_5_16_1_2 0
x_5_16_2_0 0
x_5_16_2_1 0
x_5_16_2_2 0
x_5_17_0_0 0
x_5_17_0_1 0
x_5_17_0_2 0
x_5_17_1_0 0
x_5_17_1_1 0
x_5_17_1_2 0
x_5_17_2_0 0
x_5_17_2_1 0
x_5_17_2_2 0
x_5_18_0_0 0
x_5_18_0_1 0
x_5_18_0_2 0
x_5_18_1_0 0
x_5_18_1_1 0
x_5_18_1_2 0
x_5_18_2_0 0
x_5_18_2_1 0
x_5_18_2_2 0
x_5_19_0_0 0
x_5_19_0_1 0
x_5_19_0_2 0
x_5_19_1_0 0
x_5_19_1_1 0
x_5_19_1_2 0
x_5_19_2_0 0
x_5_19_2_1 0
x_5_19_2_2 0
x_5_20_0_0 0
x_5_20_0_1 0
x_5_20_0_2 0
x_5_20_1_0 0
x_5_20_1_1 0
x_5_20_1_2 0
x_5_20_2_0 0
x_5_20_2_1 0
x_5_20_2_2 0
x_6_7_0_0 0
x_6_7_0_1 0
x_6_7_0_2 0
x_6_7_1_0 0
x_6_7_1_1 0
x_6_7_1_2 0
x_6_7_2_0 0
x_6_7_2_1 0
x_6_7_2_2 0
x_6_8_0_0 0
x_6_8_0_1 0
x_6_8_0_2 0
x_6_8_1_0 0
x_6_8_1_1 0
x_6_8_1_2 0
x_6_8_2_0 0
x_6_8_2_1 -3.1546293355333432e-13
x_6_8_2_2 0
x_6_9_0_0 0
x_6_9_0_1 0
x_6_9_0_2 -1.1041167979897182e-12
x_6_9_1_0 0
x_6_9_1_1 0
x_6_9_1_2 7.8864692554247995e-13
x_6_9_2_0 0
x_6_9_2_1 -3.1546293355333432e-13
x_6_9_2_2 0
x_6_10_0_0 0
x_6_10_0_1 0
x_6_10_0_2 0
x_6_10_1_0 0
x_6_10_1_1 0
x_6_10_1_2 0
x_6_10_2_0 0
x_6_10_2_1 0
x_6_10_2_2 0
x_6_11_0_0 0
x_6_11_0_1 0
x_6_11_0_2 0
x_6_11_1_0 0
x_6_11_1_1 0
x_6_11_1_2 0
x_6_11_2_0 0
x_6_11_2_1 0
x_6_11_2_2 0
x_6_12_0_0 3.1545946410638237e-13
x_6_12_0_1 0
x_6_12_0_2 0
x_6_12_1_0 0
x_6_12_1_1 0
x_6_12_1_2 -7.8864692554247995e-13
x_6_12_2_0 0
x_6_12_2_1 0
x_6_12_2_2 0
x_6_13_0_0 0
x_6_13_0_1 0
x_6_13_0_2 0
x_6_13_1_0 0
x_6_13_1_1 0
x_6_13_1_2 0
x_6_13_2_0 0
x_6_13_2_1 0
x_6_13_2_2 0
x_6_14_0_0 9.9999999999957945e-01
x_6_14_0_1 0
x_6_14_0_2 0
x_6_14_1_0 0
x_6_14_1_1 0
x_6_14_1_2 0
x_6_14_2_0 0
x_6_14_2_1 0
x_6_14_2_2 0
x_6_15_0_0 0
x_6_15_0_1 0
x_6_15_0_2 0
x_6_15_1_0 0
x_6_15_1_1 0
x_6_15_1_2 0
x_6_15_2_0 0
x_6_15_2_1 0
x_6_15_2_2 0
x_6_16_0_0 0
x_6_16_0_1 0
x_6_16_0_2 0
x_6_16_1_0 0
x_6_16_1_1 0
x_6_16_1_2 0
x_6_16_2_0 0
x_6_16_2_1 0
x_6_16_2_2 0
x_6_17_0_0 0
x_6_17_0_1 0
x_6_17_0_2 0
x_6_17_1_0 0
x_6_17_1_1 0
x_6_17_1_2 0
x_6_17_2_0 0
x_6_17_2_1 0
x_6_17_2_2 0
x_6_18_0_0 0
x_6_18_0_1 0
x_6_18_0_2 0
x_6_18_1_0 0
x_6_18_1_1 0
x_6_18_1_2 0
x_6_18_2_0 0
x_6_18_2_1 0
x_6_18_2_2 0
x_6_19_0_0 0
x_6_19_0_1 0
x_6_19_0_2 0
x_6_19_1_0 0
x_6_19_1_1 0
x_6_19_1_2 0
x_6_19_2_0 0
x_6_19_2_1 0
x_6_19_2_2 0
x_6_20_0_0 0
x_6_20_0_1 0
x_6_20_0_2 0
x_6_20_1_0 0
x_6_20_1_1 0
x_6_20_1_2 0
x_6_20_2_0 0
x_6_20_2_1 0
x_6_20_2_2 0
x_7_8_0_0 0
x_7_8_0_1 0
x_7_8_0_2 0
x_7_8_1_0 0
x_7_8_1_1 0
x_7_8_1_2 0
x_7_8_2_0 0
x_7_8_2_1 0
x_7_8_2_2 0
x_7_9_0_0 0
x_7_9_0_1 0
x_7_9_0_2 0
x_7_9_1_0 0
x_7_9_1_1 0
x_7_9_1_2 0
x_7_9_2_0 0
x_7_9_2_1 0
x_7_9_2_2 0
x_7_10_0_0 0
x_7_10_0_1 9.9999999999977329e-01
x_7_10_0_2 0
x_7_10_1_0 0
x_7_10_1_1 0
x_7_10_1_2 -1.5773261202520514e-13
x_7_10_2_0 0
x_7_10_2_1 0
x_7_10_2_2 0
x_7_11_0_0 0
x_7_11_0_1 0
x_7_11_0_2 0
x_7_11_1_0 0
x_7_11_1_1 0
x_7_11_1_2 0
x_7_11_2_0 0
x_7_11_2_1 0
x_7_11_2_2 0
x_7_12_0_0 0
x_7_12_0_1 0
x_7_12_0_2 0
x_7_12_1_0 0
x_7_12_1_1 0
x_7_12_1_2 0
x_7_12_2_0 0
x_7_12_2_1 0
x_7_12_2_2 0
x_7_13_0_0 0
x_7_13_0_1 0
x_7_13_0_2 0
x_7_13_1_0 0
x_7_13_1_1 0
x_7_13_1_2 0
x_7_13_2_0 0
x_7_13_2_1 0
x_7_13_2_2 0
x_7_14_0_0 0
x_7_14_0_1 0
x_7_14_0_2 0
x_7_14_1_0 0
x_7_14_1_1 0
x_7_14_1_2 0
x_7_14_2_0 0
x_7_14_2_1 0
x_7_14_2_2 0
x_7_15_0_0 0
x_7_15_0_1 0
x_7_15_0_2 0
x_7_15_1_0 0
x_7_15_1_1 0
x_7_15_1_2 0
x_7_15_2_0 0
x_7_15_2_1 0
x_7_15_2_2 0
x_7_16_0_0 0
x_7_16_0_1 0
x_7_16_0_2 0
x_7_16_1_0 0
x_7_16_1_1 0
x_7_16_1_2 0
x_7_16_2_0 0
x_7_16_2_1 0
x_7_16_2_2 0
x_7_17_0_0 0
x_7_17_0_1 0
x_7_17_0_2 0
x_7_17_1_0 0
x_7_17_1_1 0
x_7_17_1_2 0
x_7_17_2_0 0
x_7_17_2_1 0
x_7_17_2_2 0
x_7_18_0_0 0
x_7_18_0_1 0
x_7_18_0_2 0
x_7_18_1_0 0
x_7_18_1_1 0
x_7_18_1_2 0
x_7_18_2_0 0
x_7_18_2_1 0
x_7_18_2_2 0
x_7_19_0_0 0
x_7_19_0_1 0
x_7_19_0_2 0
x_7_19_1_0 0
x_7_19_1_1 0
x_7_19_1_2 0
x_7_19_2_0 0
x_7_19_2_1 0
x_7_19_2_2 0
x_7_20_0_0 0
x_7_20_0_1 0
x_7_20_0_2 0
x_7_20_1_0 0
x_7_20_1_1 0
x_7_20_1_2 0
x_7_20_2_0 0
x_7_20_2_1 0
x_7_20_2_2 0
x_8_9_0_0 0
x_8_9_0_1 0
x_8_9_0_2 1.5773320150014314e-13
x_8_9_1_0 0
x_8_9_1_1 0
x_8_9_1_2 0
x_8_9_2_0 0
x_8_9_2_1 1.0000000000003155e+00
x_8_9_2_2 0
x_8_10_0_0 0
x_8_10_0_1 0
x_8_10_0_2 0
x_8_10_1_0 0
x_8_10_1_1 0
x_8_10_1_2 0
x_8_10_2_0 0
x_8_10_2_1 0
x_8_10_2_2 0
x_8_11_0_0 0
x_8_11_0_1 0
x_8_11_0_2 0
x_8_11_1_0 0
x_8_11_1_1 0
x_8_11_1_2 0
x_8_11_2_0 0
x_8_11_2_1 0
x_8_11_2_2 0
x_8_12_0_0 0
x_8_12_0_1 0
x_8_12_0_2 -6.3092586710666865e-13
x_8_12_1_0 0
x_8_12_1_1 0
x_8_12_1_2 0
x_8_12_2_0 0
x_8_12_2_1 0
x_8_12_2_2 0
x_8_13_0_0 0
x_8_13_0_1 0
x_8_13_0_2 0
x_8_13_1_0 0
x_8_13_1_1 0
x_8_13_1_2 0
x_8_13_2_0 0
x_8_13_2_1 0
x_8_13_2_2 0
x_8_14_0_0 0
x_8_14_0_1 0
x_8_14_0_2 0
x_8_14_1_0 0
x_8_14_1_1 0
x_8_14_1_2 0
x_8_14_2_0 0
x_8_14_2_1 0
x_8_14_2_2 0
x_8_15_0_0 0
x_8_15_0_1 0
x_8_15_0_2 0
x_8_15_1_0 0
x_8_15_1_1 0
x_8_15_1_2 0
x_8_15_2_0 0
x_8_15_2_1 0
x_8_15_2_2 0
x_8_16_0_0 0
x_8_16_0_1 0
x_8_16_0_2 0
x_8_16_1_0 0
x_8_16_1_1 0
x_8_16_1_2 0
x_8_16_2_0 0
x_8_16_2_1 0
x_8_16_2_2 0
x_8_17_0_0 0
x_8_17_0_1 0
x_8_17_0_2 0
x_8_17_1_0 0
x_8_17_1_1 0
x_8_17_1_2 0
x_8_17_2_0 0
x_8_17_2_1 0
x_8_17_2_2 0
x_8_18_0_0 0
x_8_18_0_1 0
x_8_18_0_2 0
x_8_18_1_0 0
x_8_18_1_1 0
x_8_18_1_2 0
x_8_18_2_0 0
x_8_18_2_1 0
x_8_18_2_2 0
x_8_19_0_0 0
x_8_19_0_1 0
x_8_19_0_2 0
x_8_19_1_0 0
x_8_19_1_1 0
x_8_19_1_2 0
x_8_19_2_0 0
x_8_19_2_1 0
x_8_19_2_2 0
x_8_20_0_0 0
x_8_20_0_1 0
x_8_20_0_2 0
x_8_20_1_0 0
x_8_20_1_1 0
x_8_20_1_2 0
x_8_20_2_0 0
x_8_20_2_1 0
x_8_20_2_2 0
x_9_10_0_0 0
x_9_10_0_1 0
x_9_10_0_2 0
x_9_10_1_0 0
x_9_10_1_1 0
x_9_10_1_2 0
x_9_10_2_0 0
x_9_10_2_1 0
x_9_10_2_2 0
x_9_11_0_0 0
x_9_11_0_1 0
x_9_11_0_2 0
x_9_11_1_0 0
x_9_11_1_1 0
x_9_11_1_2 0
x_9_11_2_0 0
x_9_11_2_1 0
x_9_11_2_2 0
x_9_12_0_0 0
x_9_12_0_1 0
x_9_12_0_2 0
x_9_12_1_0 0
x_9_12_1_1 0
x_9_12_1_2 7.8864692554247995e-13
x_9_12_2_0 0
x_9_12_2_1 0
x_9_12_2_2 0
x_9_13_0_0 0
x_9_13_0_1 0
x_9_13_0_2 0
x_9_13_1_0 0
x_9_13_1_1 0
x_9_13_1_2 0
x_9_13_2_0 0
x_9_13_2_1 0
x_9_13_2_2 0
x_9_14_0_0 5.2662735283703910e-14
x_9_14_0_1 0
x_9_14_0_2 0
x_9_14_1_0 0
x_9_14_1_1 0
x_9_14_1_2 0
x_9_14_2_0 0
x_9_14_2_1 0
x_9_14_2_2 0
x_9_15_0_0 -5.2662735283703910e-14
x_9_15_0_1 0
x_9_15_0_2 1.5773320150014314e-13
x_9_15_1_0 0
x_9_15_1_1 0
x_9_15_1_2 0
x_9_15_2_0 0
x_9_15_2_1 1
x_9_15_2_2 3.1546522405041028e-13
x_9_16_0_0 0
x_9_16_0_1 0
x_9_16_0_2 0
x_9_16_1_0 0
x_9_16_1_1 0
x_9_16_1_2 0
x_9_16_2_0 0
x_9_16_2_1 0
x_9_16_2_2 0
x_9_17_0_0 0
x_9_17_0_1 0
x_9_17_0_2 0
x_9_17_1_0 0
x_9_17_1_1 0
x_9_17_1_2 0
x_9_17_2_0 0
x_9_17_2_1 0
x_9_17_2_2 0
x_9_18_0_0 0
x_9_18_0_1 0
x_9_18_0_2 0
x_9_18_1_0 0
x_9_18_1_1 0
x_9_18_1_2 0
x_9_18_2_0 0
x_9_18_2_1 0
x_9_18_2_2 0
x_9_19_0_0 0
x_9_19_0_1 0
x_9_19_0_2 0
x_9_19_1_0 0
x_9_19_1_1 0
x_9_19_1_2 0
x_9_19_2_0 0
x_9_19_2_1 0
x_9_19_2_2 0
x_9_20_0_0 0
x_9_20_0_1 0
x_9_20_0_2 0
x_9_20_1_0 0
x_9_20_1_1 0
x_9_20_1_2 0
x_9_20_2_0 0
x_9_20_2_1 0
x_9_20_2_2 0
x_10_11_0_0 0
x_10_11_0_1 0
x_10_11_0_2 0
x_10_11_1_0 0
x_10_11_1_1 0
x_10_11_1_2 0
x_10_11_2_0 0
x_10_11_2_1 0
x_10_11_2_2 0
x_10_12_0_0 0
x_10_12_0_1 0
x_10_12_0_2 0
x_10_12_1_0 0
x_10_12_1_1 0
x_10_12_1_2 0
x_10_12_2_0 0
x_10_12_2_1 0
x_10_12_2_2 0
x_10_13_0_0 0
x_10_13_0_1 0
x_10_13_0_2 0
x_10_13_1_0 0
x_10_13_1_1 0
x_10_13_1_2 0
x_10_13_2_0 0
x_10_13_2_1 0
x_10_13_2_2 0
x_10_14_0_0 0
x_10_14_0_1 0
x_10_14_0_2 0
x_10_14_1_0 0
x_10_14_1_1 0
x_10_14_1_2 0
x_10_14_2_0 0
x_10_14_2_1 0
x_10_14_2_2 0
x_10_15_0_0 0
x_10_15_0_1 0
x_10_15_0_2 0
x_10_15_1_0 0
x_10_15_1_1 0
x_10_15_1_2 0
x_10_15_2_0 0
x_10_15_2_1 0
x_10_15_2_2 0
x_10_16_0_0 0
x_10_16_0_1 0
x_10_16_0_2 0
x_10_16_1_0 0
x_10_16_1_1 0
x_10_16_1_2 0
x_10_16_2_0 0
x_10_16_2_1 0
x_10_16_2_2 0
x_10_17_0_0 0
x_10_17_0_1 1
x_10_17_0_2 0
x_10_17_1_0 0
x_10_17_1_1 0
x_10_17_1_2 0
x_10_17_2_0 0
x_10_17_2_1 0
x_10_17_2_2 0
x_10_18_0_0 0
x_10_18_0_1 0
x_10_18_0_2 0
x_10_18_1_0 0
x_10_18_1_1 0
x_10_18_1_2 0
x_10_18_2_0 0
x_10_18_2_1 0
x_10_18_2_2 0
x_10_19_0_0 0
x_10_19_0_1 0
x_10_19_0_2 0
x_10_19_1_0 0
x_10_19_1_1 0
x_10_19_1_2 0
x_10_19_2_0 0
x_10_19_2_1 0
x_10_19_2_2 0
x_10_20_0_0 0
x_10_20_0_1 0
x_10_20_0_2 0
x_10_20_1_0 0
x_10_20_1_1 0
x_10_20_1_2 0
x_10_20_2_0 0
x_10_20_2_1 0
x_10_20_2_2 0
x_11_12_0_0 0
x_11_12_0_1 0
x_11_12_0_2 0
x_11_12_1_0 0
x_11_12_1_1 0
x_11_12_1_2 0
x_11_12_2_0 0
x_11_12_2_1 0
x_11_12_2_2 0
x_11_13_0_0 0
x_11_13_0_1 0
x_11_13_0_2 3.1546640300028628e-13
x_11_13_1_0 0
x_11_13_1_1 0
x_11_13_1_2 0
x_11_13_2_0 0
x_11_13_2_1 0
x_11_13_2_2 0
x_11_14_0_0 2.1030746588657223e-13
x_11_14_0_1 0
x_11_14_0_2 0
x_11_14_1_0 0
x_11_14_1_1 0
x_11_14_1_2 0
x_11_14_2_0 0
x_11_14_2_1 0
x_11_14_2_2 0
x_11_15_0_0 0
x_11_15_0_1 0
x_11_15_0_2 0
x_11_15_1_0 0
x_11_15_1_1 0
x_11_15_1_2 0
x_11_15_2_0 0
x_11_15_2_1 0
x_11_15_2_2 0
x_11_16_0_0 0
x_11_16_0_1 0
x_11_16_0_2 0
x_11_16_1_0 0
x_11_16_1_1 0
x_11_16_1_2 0
x_11_16_2_0 0
x_11_16_2_1 0
x_11_16_2_2 0
x_11_17_0_0 0
x_11_17_0_1 0
x_11_17_0_2 0
x_11_17_1_0 0
x_11_17_1_1 0
x_11_17_1_2 0
x_11_17_2_0 0
x_11_17_2_1 0
x_11_17_2_2 3.1546522405041028e-13
x_11_18_0_0 0
x_11_18_0_1 0
x_11_18_0_2 0
x_11_18_1_0 0
x_11_18_1_1 0
x_11_18_1_2 0
x_11_18_2_0 0
x_11_18_2_1 0
x_11_18_2_2 0
x_11_19_0_0 0
x_11_19_0_1 0
x_11_19_0_2 0
x_11_19_1_0 0
x_11_19_1_1 0
x_11_19_1_2 0
x_11_19_2_0 0
x_11_19_2_1 0
x_11_19_2_2 0
x_11_20_0_0 0
x_11_20_0_1 0
x_11_20_0_2 0
x_11_20_1_0 0
x_11_20_1_1 0
x_11_20_1_2 0
x_11_20_2_0 0
x_11_20_2_1 0
x_11_20_2_2 0
x_12_13_0_0 0
x_12_13_0_1 0
x_12_13_0_2 0
x_12_13_1_0 0
x_12_13_1_1 0
x_12_13_1_2 0
x_12_13_2_0 0
x_12_13_2_1 0
x_12_13_2_2 0
x_12_14_0_0 0
x_12_14_0_1 0
x_12_14_0_2 0
x_12_14_1_0 0
x_12_14_1_1 0
x_12_14_1_2 0
x_12_14_2_0 0
x_12_14_2_1 0
x_12_14_2_2 0
x_12_15_0_0 0
x_12_15_0_1 0
x_12_15_0_2 0
x_12_15_1_0 0
x_12_15_1_1 0
x_12_15_1_2 0
x_12_15_2_0 0
x_12_15_2_1 0
x_12_15_2_2 0
x_12_16_0_0 0
x_12_16_0_1 0
x_12_16_0_2 0
x_12_16_1_0 0
x_12_16_1_1 0
x_12_16_1_2 0
x_12_16_2_0 0
x_12_16_2_1 0
x_12_16_2_2 0
x_12_17_0_0 0
x_12_17_0_1 0
x_12_17_0_2 0
x_12_17_1_0 0
x_12_17_1_1 0
x_12_17_1_2 0
x_12_17_2_0 0
x_12_17_2_1 0
x_12_17_2_2 0
x_12_18_0_0 0
x_12_18_0_1 0
x_12_18_0_2 0
x_12_18_1_0 0
x_12_18_1_1 0
x_12_18_1_2 0
x_12_18_2_0 0
x_12_18_2_1 0
x_12_18_2_2 0
x_12_19_0_0 0
x_12_19_0_1 0
x_12_19_0_2 0
x_12_19_1_0 0
x_12_19_1_1 0
x_12_19_1_2 0
x_12_19_2_0 0
x_12_19_2_1 0
x_12_19_2_2 0
x_12_20_0_0 0
x_12_20_0_1 0
x_12_20_0_2 0
x_12_20_1_0 0
x_12_20_1_1 0
x_12_20_1_2 0
x_12_20_2_0 0
x_12_20_2_1 0
x_12_20_2_2 0
x_13_14_0_0 0
x_13_14_0_1 0
x_13_14_0_2 0
x_13_14_1_0 0
x_13_14_1_1 0
x_13_14_1_2 0
x_13_14_2_0 0
x_13_14_2_1 0
x_13_14_2_2 0
x_13_15_0_0 0
x_13_15_0_1 0
x_13_15_0_2 0
x_13_15_1_0 0
x_13_15_1_1 0
x_13_15_1_2 0
x_13_15_2_0 0
x_13_15_2_1 0
x_13_15_2_2 0
x_13_16_0_0 0
x_13_16_0_1 0
x_13_16_0_2 0
x_13_16_1_0 0
x_13_16_1_1 0
x_13_16_1_2 0
x_13_16_2_0 0
x_13_16_2_1 0
x_13_16_2_2 0
x_13_17_0_0 0
x_13_17_0_1 1
x_13_17_0_2 0
x_13_17_1_0 0
x_13_17_1_1 0
x_13_17_1_2 3.1546522405041028e-13
x_13_17_2_0 0
x_13_17_2_1 0
x_13_17_2_2 -3.1546522405041028e-13
x_13_18_0_0 0
x_13_18_0_1 0
x_13_18_0_2 0
x_13_18_1_0 0
x_13_18_1_1 0
x_13_18_1_2 0
x_13_18_2_0 0
x_13_18_2_1 0
x_13_18_2_2 0
x_13_19_0_0 0
x_13_19_0_1 0
x_13_19_0_2 0
x_13_19_1_0 0
x_13_19_1_1 0
x_13_19_1_2 0
x_13_19_2_0 0
x_13_19_2_1 0
x_13_19_2_2 0
x_13_20_0_0 0
x_13_20_0_1 0
x_13_20_0_2 0
x_13_20_1_0 0
x_13_20_1_1 0
x_13_20_1_2 0
x_13_20_2_0 0
x_13_20_2_1 0
x_13_20_2_2 0
x_14_15_0_0 3.6818811888217340e-13
x_14_15_0_1 0
x_14_15_0_2 -1.5773320150014314e-13
x_14_15_1_0 0
x_14_15_1_1 0
x_14_15_1_2 0
x_14_15_2_0 0
x_14_15_2_1 1
x_14_15_2_2 -3.1546522405041028e-13
x_14_16_0_0 0
x_14_16_0_1 0
x_14_16_0_2 0
x_14_16_1_0 0
x_14_16_1_1 0
x_14_16_1_2 0
x_14_16_2_0 0
x_14_16_2_1 0
x_14_16_2_2 0
x_14_17_0_0 0
x_14_17_0_1 0
x_14_17_0_2 0
x_14_17_1_0 0
x_14_17_1_1 0
x_14_17_1_2 0
x_14_17_2_0 0
x_14_17_2_1 0
x_14_17_2_2 0
x_14_18_0_0 0
x_14_18_0_1 0
x_14_18_0_2 0
x_14_18_1_0 0
x_14_18_1_1 0
x_14_18_1_2 0
x_14_18_2_0 0
x_14_18_2_1 0
x_14_18_2_2 0
x_14_19_0_0 0
x_14_19_0_1 0
x_14_19_0_2 0
x_14_19_1_0 0
x_14_19_1_1 0
x_14_19_1_2 0
x_14_19_2_0 0
x_14_19_2_1 0
x_14_19_2_2 0
x_14_20_0_0 0
x_14_20_0_1 0
x_14_20_0_2 0
x_14_20_1_0 0
x_14_20_1_1 0
x_14_20_1_2 0
x_14_20_2_0 0
x_14_20_2_1 0
x_14_20_2_2 0
x_15_16_0_0 0
x_15_16_0_1 0
x_15_16_0_2 0
x_15_16_1_0 0
x_15_16_1_1 0
x_15_16_1_2 0
x_15_16_2_0 0
x_15_16_2_1 0
x_15_16_2_2 0
x_15_17_0_0 0
x_15_17_0_1 0
x_15_17_0_2 0
x_15_17_1_0 0
x_15_17_1_1 0
x_15_17_1_2 0
x_15_17_2_0 0
x_15_17_2_1 0
x_15_17_2_2 0
x_15_18_0_0 0
x_15_18_0_1 0
x_15_18_0_2 0
x_15_18_1_0 0
x_15_18_1_1 0
x_15_18_1_2 0
x_15_18_2_0 0
x_15_18_2_1 0
x_15_18_2_2 0
x_15_19_0_0 0
x_15_19_0_1 0
x_15_19_0_2 0
x_15_19_1_0 0
x_15_19_1_1 0
x_15_19_1_2 0
x_15_19_2_0 0
x_15_19_2_1 0
x_15_19_2_2 0
x_15_20_0_0 0
x_15_20_0_1 0
x_15_20_0_2 0
x_15_20_1_0 0
x_15_20_1_1 0
x_15_20_1_2 0
x_15_20_2_0 0
x_15_20_2_1 0
x_15_20_2_2 0
x_16_17_0_0 0
x_16_17_0_1 0
x_16_17_0_2 0
x_16_17_1_0 0
x_16_17_1_1 0
x_16_17_1_2 0
x_16_17_2_0 0
x_16_17_2_1 0
x_16_17_2_2 0
x_16_18_0_0 0
x_16_18_0_1 0
x_16_18_0_2 0
x_16_18_1_0 0
x_16_18_1_1 0
x_16_18_1_2 0
x_16_18_2_0 0
x_16_18_2_1 0
x_16_18_2_2 0
x_16_19_0_0 0
x_16_19_0_1 0
x_16_19_0_2 0
x_16_19_1_0 0
x_16_19_1_1 0
x_16_19_1_2 0
x_16_19_2_0 0
x_16_19_2_1 0
x_16_19_2_2 0
x_16_20_0_0 1
x_16_20_0_1 0
x_16_20_0_2 0
x_16_20_1_0 0
x_16_20_1_1 0
x_16_20_1_2 0
x_16_20_2_0 0
x_16_20_2_1 0
x_16_20_2_2 0
x_17_18_0_0 0
x_17_18_0_1 0
x_17_18_0_2 0
x_17_18_1_0 0
x_17_18_1_1 0
x_17_18_1_2 0
x_17_18_2_0 0
x_17_18_2_1 0
x_17_18_2_2 0
x_17_19_0_0 0
x_17_19_0_1 0
x_17_19_0_2 0
x_17_19_1_0 0
x_17_19_1_1 0
x_17_19_1_2 0
x_17_19_2_0 0
x_17_19_2_1 0
x_17_19_2_2 0
x_17_20_0_0 0
x_17_20_0_1 0
x_17_20_0_2 0
x_17_20_1_0 0
x_17_20_1_1 0
x_17_20_1_2 0
x_17_20_2_0 0
x_17_20_2_1 0
x_17_20_2_2 0
x_18_19_0_0 0
x_18_19_0_1 0
x_18_19_0_2 0
x_18_19_1_0 0
x_18_19_1_1 1
x_18_19_1_2 0
x_18_19_2_0 0
x_18_19_2_1 0
x_18_19_2_2 0
x_18_20_0_0 0
x_18_20_0_1 0
x_18_20_0_2 0
x_18_20_1_0 0
x_18_20_1_1 0
x_18_20_1_2 0
x_18_20_2_0 0
x_18_20_2_1 0
x_18_20_2_2 0
x_19_20_0_0 0
x_19_20_0_1 0
x_19_20_0_2 0
x_19_20_1_0 0
x_19_20_1_1 0
x_19_20_1_2 0
x_19_20_2_0 0
x_19_20_2_1 0
x_19_20_2_2 0
